c This DIMACS format CNF file was generated by SatSolver.java
c Do not edit.
p cnf 147 674
1 22 43 64 85 106 127 0
2 23 44 65 86 107 128 0
3 24 45 66 87 108 129 0
4 25 46 67 88 109 130 0
5 26 47 68 89 110 131 0
6 27 48 69 90 111 132 0
7 28 49 70 91 112 133 0
8 29 50 71 92 113 134 0
9 30 51 72 93 114 135 0
10 31 52 73 94 115 136 0
11 32 53 74 95 116 137 0
12 33 54 75 96 117 138 0
13 34 55 76 97 118 139 0
14 35 56 77 98 119 140 0
15 36 57 78 99 120 141 0
16 37 58 79 100 121 142 0
17 38 59 80 101 122 143 0
18 39 60 81 102 123 144 0
19 40 61 82 103 124 145 0
20 41 62 83 104 125 146 0
21 42 63 84 105 126 147 0
-1 -22 0
-1 -43 0
-1 -64 0
-1 -85 0
-1 -106 0
-1 -127 0
-22 -43 0
-22 -64 0
-22 -85 0
-22 -106 0
-22 -127 0
-43 -64 0
-43 -85 0
-43 -106 0
-43 -127 0
-64 -85 0
-64 -106 0
-64 -127 0
-85 -106 0
-85 -127 0
-106 -127 0
-2 -23 0
-2 -44 0
-2 -65 0
-2 -86 0
-2 -107 0
-2 -128 0
-23 -44 0
-23 -65 0
-23 -86 0
-23 -107 0
-23 -128 0
-44 -65 0
-44 -86 0
-44 -107 0
-44 -128 0
-65 -86 0
-65 -107 0
-65 -128 0
-86 -107 0
-86 -128 0
-107 -128 0
-3 -24 0
-3 -45 0
-3 -66 0
-3 -87 0
-3 -108 0
-3 -129 0
-24 -45 0
-24 -66 0
-24 -87 0
-24 -108 0
-24 -129 0
-45 -66 0
-45 -87 0
-45 -108 0
-45 -129 0
-66 -87 0
-66 -108 0
-66 -129 0
-87 -108 0
-87 -129 0
-108 -129 0
-4 -25 0
-4 -46 0
-4 -67 0
-4 -88 0
-4 -109 0
-4 -130 0
-25 -46 0
-25 -67 0
-25 -88 0
-25 -109 0
-25 -130 0
-46 -67 0
-46 -88 0
-46 -109 0
-46 -130 0
-67 -88 0
-67 -109 0
-67 -130 0
-88 -109 0
-88 -130 0
-109 -130 0
-5 -26 0
-5 -47 0
-5 -68 0
-5 -89 0
-5 -110 0
-5 -131 0
-26 -47 0
-26 -68 0
-26 -89 0
-26 -110 0
-26 -131 0
-47 -68 0
-47 -89 0
-47 -110 0
-47 -131 0
-68 -89 0
-68 -110 0
-68 -131 0
-89 -110 0
-89 -131 0
-110 -131 0
-6 -27 0
-6 -48 0
-6 -69 0
-6 -90 0
-6 -111 0
-6 -132 0
-27 -48 0
-27 -69 0
-27 -90 0
-27 -111 0
-27 -132 0
-48 -69 0
-48 -90 0
-48 -111 0
-48 -132 0
-69 -90 0
-69 -111 0
-69 -132 0
-90 -111 0
-90 -132 0
-111 -132 0
-7 -28 0
-7 -49 0
-7 -70 0
-7 -91 0
-7 -112 0
-7 -133 0
-28 -49 0
-28 -70 0
-28 -91 0
-28 -112 0
-28 -133 0
-49 -70 0
-49 -91 0
-49 -112 0
-49 -133 0
-70 -91 0
-70 -112 0
-70 -133 0
-91 -112 0
-91 -133 0
-112 -133 0
-8 -29 0
-8 -50 0
-8 -71 0
-8 -92 0
-8 -113 0
-8 -134 0
-29 -50 0
-29 -71 0
-29 -92 0
-29 -113 0
-29 -134 0
-50 -71 0
-50 -92 0
-50 -113 0
-50 -134 0
-71 -92 0
-71 -113 0
-71 -134 0
-92 -113 0
-92 -134 0
-113 -134 0
-9 -30 0
-9 -51 0
-9 -72 0
-9 -93 0
-9 -114 0
-9 -135 0
-30 -51 0
-30 -72 0
-30 -93 0
-30 -114 0
-30 -135 0
-51 -72 0
-51 -93 0
-51 -114 0
-51 -135 0
-72 -93 0
-72 -114 0
-72 -135 0
-93 -114 0
-93 -135 0
-114 -135 0
-10 -31 0
-10 -52 0
-10 -73 0
-10 -94 0
-10 -115 0
-10 -136 0
-31 -52 0
-31 -73 0
-31 -94 0
-31 -115 0
-31 -136 0
-52 -73 0
-52 -94 0
-52 -115 0
-52 -136 0
-73 -94 0
-73 -115 0
-73 -136 0
-94 -115 0
-94 -136 0
-115 -136 0
-11 -32 0
-11 -53 0
-11 -74 0
-11 -95 0
-11 -116 0
-11 -137 0
-32 -53 0
-32 -74 0
-32 -95 0
-32 -116 0
-32 -137 0
-53 -74 0
-53 -95 0
-53 -116 0
-53 -137 0
-74 -95 0
-74 -116 0
-74 -137 0
-95 -116 0
-95 -137 0
-116 -137 0
-12 -33 0
-12 -54 0
-12 -75 0
-12 -96 0
-12 -117 0
-12 -138 0
-33 -54 0
-33 -75 0
-33 -96 0
-33 -117 0
-33 -138 0
-54 -75 0
-54 -96 0
-54 -117 0
-54 -138 0
-75 -96 0
-75 -117 0
-75 -138 0
-96 -117 0
-96 -138 0
-117 -138 0
-13 -34 0
-13 -55 0
-13 -76 0
-13 -97 0
-13 -118 0
-13 -139 0
-34 -55 0
-34 -76 0
-34 -97 0
-34 -118 0
-34 -139 0
-55 -76 0
-55 -97 0
-55 -118 0
-55 -139 0
-76 -97 0
-76 -118 0
-76 -139 0
-97 -118 0
-97 -139 0
-118 -139 0
-14 -35 0
-14 -56 0
-14 -77 0
-14 -98 0
-14 -119 0
-14 -140 0
-35 -56 0
-35 -77 0
-35 -98 0
-35 -119 0
-35 -140 0
-56 -77 0
-56 -98 0
-56 -119 0
-56 -140 0
-77 -98 0
-77 -119 0
-77 -140 0
-98 -119 0
-98 -140 0
-119 -140 0
-15 -36 0
-15 -57 0
-15 -78 0
-15 -99 0
-15 -120 0
-15 -141 0
-36 -57 0
-36 -78 0
-36 -99 0
-36 -120 0
-36 -141 0
-57 -78 0
-57 -99 0
-57 -120 0
-57 -141 0
-78 -99 0
-78 -120 0
-78 -141 0
-99 -120 0
-99 -141 0
-120 -141 0
-16 -37 0
-16 -58 0
-16 -79 0
-16 -100 0
-16 -121 0
-16 -142 0
-37 -58 0
-37 -79 0
-37 -100 0
-37 -121 0
-37 -142 0
-58 -79 0
-58 -100 0
-58 -121 0
-58 -142 0
-79 -100 0
-79 -121 0
-79 -142 0
-100 -121 0
-100 -142 0
-121 -142 0
-17 -38 0
-17 -59 0
-17 -80 0
-17 -101 0
-17 -122 0
-17 -143 0
-38 -59 0
-38 -80 0
-38 -101 0
-38 -122 0
-38 -143 0
-59 -80 0
-59 -101 0
-59 -122 0
-59 -143 0
-80 -101 0
-80 -122 0
-80 -143 0
-101 -122 0
-101 -143 0
-122 -143 0
-18 -39 0
-18 -60 0
-18 -81 0
-18 -102 0
-18 -123 0
-18 -144 0
-39 -60 0
-39 -81 0
-39 -102 0
-39 -123 0
-39 -144 0
-60 -81 0
-60 -102 0
-60 -123 0
-60 -144 0
-81 -102 0
-81 -123 0
-81 -144 0
-102 -123 0
-102 -144 0
-123 -144 0
-19 -40 0
-19 -61 0
-19 -82 0
-19 -103 0
-19 -124 0
-19 -145 0
-40 -61 0
-40 -82 0
-40 -103 0
-40 -124 0
-40 -145 0
-61 -82 0
-61 -103 0
-61 -124 0
-61 -145 0
-82 -103 0
-82 -124 0
-82 -145 0
-103 -124 0
-103 -145 0
-124 -145 0
-20 -41 0
-20 -62 0
-20 -83 0
-20 -104 0
-20 -125 0
-20 -146 0
-41 -62 0
-41 -83 0
-41 -104 0
-41 -125 0
-41 -146 0
-62 -83 0
-62 -104 0
-62 -125 0
-62 -146 0
-83 -104 0
-83 -125 0
-83 -146 0
-104 -125 0
-104 -146 0
-125 -146 0
-21 -42 0
-21 -63 0
-21 -84 0
-21 -105 0
-21 -126 0
-21 -147 0
-42 -63 0
-42 -84 0
-42 -105 0
-42 -126 0
-42 -147 0
-63 -84 0
-63 -105 0
-63 -126 0
-63 -147 0
-84 -105 0
-84 -126 0
-84 -147 0
-105 -126 0
-105 -147 0
-126 -147 0
127 128 129 130 131 132 0
133 134 135 136 137 138 0
139 140 141 142 143 144 145 146 147 0
-127 -128 0
-127 -129 0
-127 -130 0
-127 -131 0
-127 -132 0
-128 -129 0
-128 -130 0
-128 -131 0
-128 -132 0
-129 -130 0
-129 -131 0
-129 -132 0
-130 -131 0
-130 -132 0
-131 -132 0
-133 -134 0
-133 -135 0
-133 -136 0
-133 -137 0
-133 -138 0
-134 -135 0
-134 -136 0
-134 -137 0
-134 -138 0
-135 -136 0
-135 -137 0
-135 -138 0
-136 -137 0
-136 -138 0
-137 -138 0
-139 -140 0
-139 -141 0
-139 -142 0
-139 -143 0
-139 -144 0
-139 -145 0
-139 -146 0
-139 -147 0
-140 -141 0
-140 -142 0
-140 -143 0
-140 -144 0
-140 -145 0
-140 -146 0
-140 -147 0
-141 -142 0
-141 -143 0
-141 -144 0
-141 -145 0
-141 -146 0
-141 -147 0
-142 -143 0
-142 -144 0
-142 -145 0
-142 -146 0
-142 -147 0
-143 -144 0
-143 -145 0
-143 -146 0
-143 -147 0
-144 -145 0
-144 -146 0
-144 -147 0
-145 -146 0
-145 -147 0
-146 -147 0
6 0
20 0
21 0
-1 0
-2 0
-3 0
-4 0
-5 0
-7 0
-8 0
-9 0
-10 0
-11 0
-12 0
-13 0
-14 0
-15 0
-16 0
-17 0
-18 0
-19 0
26 0
-46 0
-53 0
-57 0
-67 0
-74 0
-78 0
88 95 99 0
-64 0
-72 0
-80 0
85 93 101 0
-90 0
-91 0
-101 0
111 112 122 0
-108 0
-113 0
-120 0
-3 0
-8 0
-15 0
-24 0
-29 0
-36 0
45 50 57 0
6 0
23 0
46 52 59 0
64 71 84 0
88 91 99 0
106 116 120 0
-3 0
-7 0
-18 0
-24 0
-28 0
-39 0
45 49 60 0
35 0
46 49 57 0
67 75 76 0
-90 0
-95 0
-102 0
111 116 123 0
-110 0
-116 0
-118 0
-5 0
-11 0
-13 0
26 32 34 0
109 130 0
116 137 0
122 143 0
-27 0
-32 0
-34 0
-48 0
-53 0
-55 0
-69 0
-74 0
-76 0
97 0
-67 0
-74 0
-76 0
88 95 97 0
88 130 0
95 137 0
97 139 0
-24 0
-32 0
-42 0
45 0
-46 0
-53 0
-59 0
-67 0
-74 0
-80 0
-88 0
-95 0
-101 0
109 116 122 0
-67 0
-74 0
-84 0
-88 0
-95 0
-105 0
-109 0
-116 0
-126 0
21 0
-90 0
-95 0
-105 0
-111 0
-116 0
-126 0
6 0
-111 0
-116 0
-126 0
6 0
-4 0
-11 0
-16 0
-25 0
-32 0
-37 0
-46 0
-53 0
-58 0
67 74 79 0
130 0
137 0
145 0
147 0
